23
16
17
43
11
12
5
23
29
6
21
9
3
20
14
11
13
19
24
9
45
67
23
16
17
17
4
14
30
15
20
21
19
27
19
40
22
18
17
19
30
4
43
19
2
16
21
27
43
30
11
22
18
14
19
35
14
18
23
14
11
18
23
30
18
16
24
19
28
18
19
17
16
18
11
17
19
18
16
12
16
21
43
15
17
8
3
34
16
23
30
16
28
28
18
19
59
28
16
21
